c Standarized MaxSat Instance
c{
c "sha1sum": "9527d2b178df857e6ff0263e2190ce6bc7ef36d4",
c "nvars": 60,
c "ncls": 1200,
c "nhards": 0,
c "nhard_len_stats":
c    { "min": 0, "max": 0, "ave": 0.00,
c      "stddev": 0.00 },
c "nsofts": 1200,
c "nsoft_len_stats":
c    { "min": 2, "max": 2, "ave": 2.00,
c      "stddev": 0.00 },
c "nsoft_wts": 10,
c "soft_wt_stats":
c    { "min": 1, "max": 10, "ave": 5.69,
c      "stddev": 2.81 }
c}
c------------------------------------------------------------
c Generated after 1 tries
c Graph with 60 nodes and 600 edges, Max edges:1770
p wcnf 60 1200 6827
9 1 5 0
9 -1 -5 0
4 1 6 0
4 -1 -6 0
8 1 10 0
8 -1 -10 0
8 1 13 0
8 -1 -13 0
10 1 20 0
10 -1 -20 0
2 1 29 0
2 -1 -29 0
4 1 30 0
4 -1 -30 0
8 1 32 0
8 -1 -32 0
3 1 33 0
3 -1 -33 0
6 1 35 0
6 -1 -35 0
5 1 41 0
5 -1 -41 0
7 1 47 0
7 -1 -47 0
4 1 49 0
4 -1 -49 0
6 1 50 0
6 -1 -50 0
10 1 53 0
10 -1 -53 0
10 1 56 0
10 -1 -56 0
7 1 58 0
7 -1 -58 0
8 1 59 0
8 -1 -59 0
2 2 3 0
2 -2 -3 0
7 2 4 0
7 -2 -4 0
1 2 6 0
1 -2 -6 0
3 2 8 0
3 -2 -8 0
2 2 11 0
2 -2 -11 0
9 2 13 0
9 -2 -13 0
2 2 20 0
2 -2 -20 0
5 2 23 0
5 -2 -23 0
2 2 24 0
2 -2 -24 0
2 2 26 0
2 -2 -26 0
10 2 27 0
10 -2 -27 0
3 2 37 0
3 -2 -37 0
6 2 39 0
6 -2 -39 0
9 2 40 0
9 -2 -40 0
7 2 41 0
7 -2 -41 0
3 2 42 0
3 -2 -42 0
7 2 44 0
7 -2 -44 0
6 2 45 0
6 -2 -45 0
5 2 46 0
5 -2 -46 0
10 2 50 0
10 -2 -50 0
3 2 52 0
3 -2 -52 0
8 2 53 0
8 -2 -53 0
6 2 57 0
6 -2 -57 0
8 2 60 0
8 -2 -60 0
5 3 6 0
5 -3 -6 0
9 3 13 0
9 -3 -13 0
3 3 14 0
3 -3 -14 0
4 3 17 0
4 -3 -17 0
9 3 18 0
9 -3 -18 0
10 3 20 0
10 -3 -20 0
1 3 21 0
1 -3 -21 0
10 3 22 0
10 -3 -22 0
6 3 25 0
6 -3 -25 0
1 3 28 0
1 -3 -28 0
2 3 32 0
2 -3 -32 0
7 3 34 0
7 -3 -34 0
9 3 38 0
9 -3 -38 0
4 3 39 0
4 -3 -39 0
1 3 40 0
1 -3 -40 0
1 3 41 0
1 -3 -41 0
5 3 42 0
5 -3 -42 0
1 3 44 0
1 -3 -44 0
3 3 49 0
3 -3 -49 0
10 4 8 0
10 -4 -8 0
10 4 10 0
10 -4 -10 0
9 4 11 0
9 -4 -11 0
3 4 14 0
3 -4 -14 0
6 4 15 0
6 -4 -15 0
4 4 20 0
4 -4 -20 0
8 4 26 0
8 -4 -26 0
6 4 27 0
6 -4 -27 0
7 4 31 0
7 -4 -31 0
6 4 39 0
6 -4 -39 0
1 4 40 0
1 -4 -40 0
5 4 41 0
5 -4 -41 0
10 4 42 0
10 -4 -42 0
10 4 43 0
10 -4 -43 0
8 4 46 0
8 -4 -46 0
3 4 47 0
3 -4 -47 0
8 4 49 0
8 -4 -49 0
7 4 51 0
7 -4 -51 0
4 5 6 0
4 -5 -6 0
7 5 8 0
7 -5 -8 0
2 5 13 0
2 -5 -13 0
5 5 14 0
5 -5 -14 0
9 5 18 0
9 -5 -18 0
9 5 24 0
9 -5 -24 0
4 5 34 0
4 -5 -34 0
3 5 37 0
3 -5 -37 0
9 5 43 0
9 -5 -43 0
4 5 45 0
4 -5 -45 0
7 5 46 0
7 -5 -46 0
10 5 48 0
10 -5 -48 0
6 5 50 0
6 -5 -50 0
7 5 52 0
7 -5 -52 0
9 5 54 0
9 -5 -54 0
5 5 58 0
5 -5 -58 0
10 5 59 0
10 -5 -59 0
4 5 60 0
4 -5 -60 0
9 6 9 0
9 -6 -9 0
7 6 11 0
7 -6 -11 0
10 6 14 0
10 -6 -14 0
5 6 15 0
5 -6 -15 0
3 6 16 0
3 -6 -16 0
10 6 21 0
10 -6 -21 0
10 6 22 0
10 -6 -22 0
2 6 27 0
2 -6 -27 0
9 6 31 0
9 -6 -31 0
7 6 32 0
7 -6 -32 0
5 6 34 0
5 -6 -34 0
7 6 36 0
7 -6 -36 0
3 6 37 0
3 -6 -37 0
8 6 40 0
8 -6 -40 0
4 6 41 0
4 -6 -41 0
5 6 52 0
5 -6 -52 0
3 7 8 0
3 -7 -8 0
2 7 14 0
2 -7 -14 0
3 7 19 0
3 -7 -19 0
6 7 21 0
6 -7 -21 0
5 7 24 0
5 -7 -24 0
2 7 25 0
2 -7 -25 0
10 7 27 0
10 -7 -27 0
2 7 28 0
2 -7 -28 0
2 7 29 0
2 -7 -29 0
5 7 33 0
5 -7 -33 0
8 7 37 0
8 -7 -37 0
10 7 38 0
10 -7 -38 0
10 7 39 0
10 -7 -39 0
7 7 42 0
7 -7 -42 0
4 7 44 0
4 -7 -44 0
8 7 46 0
8 -7 -46 0
4 7 48 0
4 -7 -48 0
3 7 51 0
3 -7 -51 0
3 8 12 0
3 -8 -12 0
6 8 13 0
6 -8 -13 0
3 8 20 0
3 -8 -20 0
2 8 23 0
2 -8 -23 0
8 8 24 0
8 -8 -24 0
2 8 26 0
2 -8 -26 0
8 8 36 0
8 -8 -36 0
2 8 46 0
2 -8 -46 0
8 8 49 0
8 -8 -49 0
1 8 53 0
1 -8 -53 0
10 8 54 0
10 -8 -54 0
1 8 56 0
1 -8 -56 0
6 8 60 0
6 -8 -60 0
2 9 15 0
2 -9 -15 0
3 9 18 0
3 -9 -18 0
8 9 20 0
8 -9 -20 0
8 9 22 0
8 -9 -22 0
7 9 25 0
7 -9 -25 0
10 9 26 0
10 -9 -26 0
7 9 29 0
7 -9 -29 0
8 9 32 0
8 -9 -32 0
1 9 36 0
1 -9 -36 0
2 9 38 0
2 -9 -38 0
6 9 43 0
6 -9 -43 0
1 9 44 0
1 -9 -44 0
1 9 45 0
1 -9 -45 0
3 9 49 0
3 -9 -49 0
5 9 52 0
5 -9 -52 0
9 9 57 0
9 -9 -57 0
6 9 60 0
6 -9 -60 0
8 10 11 0
8 -10 -11 0
1 10 17 0
1 -10 -17 0
2 10 18 0
2 -10 -18 0
10 10 19 0
10 -10 -19 0
3 10 21 0
3 -10 -21 0
9 10 23 0
9 -10 -23 0
2 10 26 0
2 -10 -26 0
10 10 31 0
10 -10 -31 0
1 10 33 0
1 -10 -33 0
9 10 35 0
9 -10 -35 0
1 10 38 0
1 -10 -38 0
1 10 44 0
1 -10 -44 0
10 10 47 0
10 -10 -47 0
6 10 51 0
6 -10 -51 0
2 10 54 0
2 -10 -54 0
2 10 55 0
2 -10 -55 0
4 10 57 0
4 -10 -57 0
10 11 12 0
10 -11 -12 0
9 11 14 0
9 -11 -14 0
4 11 15 0
4 -11 -15 0
6 11 17 0
6 -11 -17 0
6 11 19 0
6 -11 -19 0
5 11 22 0
5 -11 -22 0
7 11 27 0
7 -11 -27 0
1 11 28 0
1 -11 -28 0
6 11 37 0
6 -11 -37 0
8 11 38 0
8 -11 -38 0
4 11 39 0
4 -11 -39 0
10 11 48 0
10 -11 -48 0
6 11 51 0
6 -11 -51 0
9 11 53 0
9 -11 -53 0
8 11 56 0
8 -11 -56 0
7 11 58 0
7 -11 -58 0
1 12 14 0
1 -12 -14 0
8 12 15 0
8 -12 -15 0
9 12 19 0
9 -12 -19 0
10 12 21 0
10 -12 -21 0
9 12 24 0
9 -12 -24 0
9 12 26 0
9 -12 -26 0
10 12 32 0
10 -12 -32 0
8 12 36 0
8 -12 -36 0
10 12 37 0
10 -12 -37 0
10 12 42 0
10 -12 -42 0
7 12 48 0
7 -12 -48 0
5 12 49 0
5 -12 -49 0
2 12 51 0
2 -12 -51 0
9 12 53 0
9 -12 -53 0
9 12 54 0
9 -12 -54 0
1 12 55 0
1 -12 -55 0
7 13 23 0
7 -13 -23 0
3 13 24 0
3 -13 -24 0
7 13 26 0
7 -13 -26 0
3 13 34 0
3 -13 -34 0
8 13 35 0
8 -13 -35 0
4 13 36 0
4 -13 -36 0
4 13 40 0
4 -13 -40 0
3 13 41 0
3 -13 -41 0
1 13 42 0
1 -13 -42 0
7 13 48 0
7 -13 -48 0
3 13 49 0
3 -13 -49 0
7 13 50 0
7 -13 -50 0
6 13 56 0
6 -13 -56 0
10 13 59 0
10 -13 -59 0
3 14 15 0
3 -14 -15 0
6 14 19 0
6 -14 -19 0
8 14 21 0
8 -14 -21 0
2 14 25 0
2 -14 -25 0
5 14 32 0
5 -14 -32 0
6 14 33 0
6 -14 -33 0
10 14 35 0
10 -14 -35 0
5 14 39 0
5 -14 -39 0
4 14 40 0
4 -14 -40 0
9 14 43 0
9 -14 -43 0
5 14 44 0
5 -14 -44 0
1 14 45 0
1 -14 -45 0
4 14 47 0
4 -14 -47 0
6 14 48 0
6 -14 -48 0
9 14 52 0
9 -14 -52 0
3 14 53 0
3 -14 -53 0
7 14 54 0
7 -14 -54 0
5 14 55 0
5 -14 -55 0
5 14 56 0
5 -14 -56 0
4 14 57 0
4 -14 -57 0
8 15 19 0
8 -15 -19 0
2 15 29 0
2 -15 -29 0
7 15 32 0
7 -15 -32 0
1 15 37 0
1 -15 -37 0
5 15 38 0
5 -15 -38 0
7 15 44 0
7 -15 -44 0
7 15 54 0
7 -15 -54 0
7 15 58 0
7 -15 -58 0
4 16 17 0
4 -16 -17 0
2 16 23 0
2 -16 -23 0
7 16 26 0
7 -16 -26 0
7 16 29 0
7 -16 -29 0
8 16 33 0
8 -16 -33 0
4 16 35 0
4 -16 -35 0
8 16 40 0
8 -16 -40 0
3 16 44 0
3 -16 -44 0
10 16 48 0
10 -16 -48 0
7 16 53 0
7 -16 -53 0
7 16 60 0
7 -16 -60 0
3 17 18 0
3 -17 -18 0
6 17 19 0
6 -17 -19 0
1 17 22 0
1 -17 -22 0
3 17 25 0
3 -17 -25 0
9 17 26 0
9 -17 -26 0
7 17 29 0
7 -17 -29 0
1 17 32 0
1 -17 -32 0
2 17 35 0
2 -17 -35 0
4 17 36 0
4 -17 -36 0
6 17 38 0
6 -17 -38 0
6 17 43 0
6 -17 -43 0
7 17 47 0
7 -17 -47 0
3 17 49 0
3 -17 -49 0
8 17 50 0
8 -17 -50 0
3 17 51 0
3 -17 -51 0
4 17 54 0
4 -17 -54 0
2 17 55 0
2 -17 -55 0
10 17 58 0
10 -17 -58 0
1 18 19 0
1 -18 -19 0
9 18 20 0
9 -18 -20 0
4 18 22 0
4 -18 -22 0
2 18 26 0
2 -18 -26 0
5 18 29 0
5 -18 -29 0
10 18 32 0
10 -18 -32 0
10 18 33 0
10 -18 -33 0
8 18 34 0
8 -18 -34 0
7 18 42 0
7 -18 -42 0
2 18 48 0
2 -18 -48 0
7 18 49 0
7 -18 -49 0
4 18 58 0
4 -18 -58 0
8 18 60 0
8 -18 -60 0
10 19 20 0
10 -19 -20 0
10 19 24 0
10 -19 -24 0
9 19 26 0
9 -19 -26 0
3 19 28 0
3 -19 -28 0
8 19 29 0
8 -19 -29 0
6 19 32 0
6 -19 -32 0
3 19 37 0
3 -19 -37 0
10 19 38 0
10 -19 -38 0
10 19 40 0
10 -19 -40 0
9 19 41 0
9 -19 -41 0
5 19 45 0
5 -19 -45 0
6 19 46 0
6 -19 -46 0
2 19 51 0
2 -19 -51 0
3 19 54 0
3 -19 -54 0
9 19 55 0
9 -19 -55 0
5 19 56 0
5 -19 -56 0
5 19 57 0
5 -19 -57 0
9 19 58 0
9 -19 -58 0
5 20 23 0
5 -20 -23 0
3 20 26 0
3 -20 -26 0
2 20 27 0
2 -20 -27 0
7 20 31 0
7 -20 -31 0
8 20 35 0
8 -20 -35 0
2 20 37 0
2 -20 -37 0
7 20 40 0
7 -20 -40 0
5 20 50 0
5 -20 -50 0
9 20 52 0
9 -20 -52 0
8 20 56 0
8 -20 -56 0
2 20 57 0
2 -20 -57 0
3 20 60 0
3 -20 -60 0
5 21 23 0
5 -21 -23 0
2 21 25 0
2 -21 -25 0
2 21 30 0
2 -21 -30 0
4 21 31 0
4 -21 -31 0
4 21 35 0
4 -21 -35 0
10 21 44 0
10 -21 -44 0
10 21 47 0
10 -21 -47 0
7 21 50 0
7 -21 -50 0
9 21 51 0
9 -21 -51 0
9 21 53 0
9 -21 -53 0
5 21 59 0
5 -21 -59 0
4 22 26 0
4 -22 -26 0
4 22 28 0
4 -22 -28 0
7 22 37 0
7 -22 -37 0
7 22 39 0
7 -22 -39 0
3 22 41 0
3 -22 -41 0
2 22 43 0
2 -22 -43 0
1 22 44 0
1 -22 -44 0
2 22 45 0
2 -22 -45 0
7 22 46 0
7 -22 -46 0
4 22 47 0
4 -22 -47 0
3 22 48 0
3 -22 -48 0
4 22 51 0
4 -22 -51 0
1 22 53 0
1 -22 -53 0
5 22 57 0
5 -22 -57 0
10 22 58 0
10 -22 -58 0
6 22 60 0
6 -22 -60 0
3 23 24 0
3 -23 -24 0
7 23 25 0
7 -23 -25 0
8 23 27 0
8 -23 -27 0
5 23 30 0
5 -23 -30 0
2 23 31 0
2 -23 -31 0
9 23 35 0
9 -23 -35 0
7 23 40 0
7 -23 -40 0
6 23 41 0
6 -23 -41 0
3 23 45 0
3 -23 -45 0
6 23 49 0
6 -23 -49 0
5 23 51 0
5 -23 -51 0
9 23 53 0
9 -23 -53 0
4 23 55 0
4 -23 -55 0
3 23 56 0
3 -23 -56 0
4 23 59 0
4 -23 -59 0
8 24 26 0
8 -24 -26 0
7 24 27 0
7 -24 -27 0
10 24 30 0
10 -24 -30 0
4 24 34 0
4 -24 -34 0
9 24 38 0
9 -24 -38 0
2 24 40 0
2 -24 -40 0
5 24 42 0
5 -24 -42 0
1 24 44 0
1 -24 -44 0
8 24 48 0
8 -24 -48 0
8 24 51 0
8 -24 -51 0
3 24 53 0
3 -24 -53 0
2 24 55 0
2 -24 -55 0
9 24 56 0
9 -24 -56 0
8 24 58 0
8 -24 -58 0
1 24 59 0
1 -24 -59 0
5 24 60 0
5 -24 -60 0
10 25 30 0
10 -25 -30 0
8 25 31 0
8 -25 -31 0
3 25 34 0
3 -25 -34 0
5 25 36 0
5 -25 -36 0
9 25 40 0
9 -25 -40 0
1 25 41 0
1 -25 -41 0
1 25 42 0
1 -25 -42 0
4 25 46 0
4 -25 -46 0
4 25 50 0
4 -25 -50 0
7 25 54 0
7 -25 -54 0
9 25 55 0
9 -25 -55 0
2 25 57 0
2 -25 -57 0
1 26 30 0
1 -26 -30 0
1 26 31 0
1 -26 -31 0
5 26 34 0
5 -26 -34 0
8 26 35 0
8 -26 -35 0
7 26 38 0
7 -26 -38 0
5 26 40 0
5 -26 -40 0
2 26 41 0
2 -26 -41 0
6 26 44 0
6 -26 -44 0
6 26 55 0
6 -26 -55 0
6 26 56 0
6 -26 -56 0
6 27 28 0
6 -27 -28 0
4 27 31 0
4 -27 -31 0
4 27 33 0
4 -27 -33 0
9 27 39 0
9 -27 -39 0
5 27 40 0
5 -27 -40 0
2 27 43 0
2 -27 -43 0
7 27 47 0
7 -27 -47 0
6 27 55 0
6 -27 -55 0
7 27 60 0
7 -27 -60 0
6 28 36 0
6 -28 -36 0
3 28 37 0
3 -28 -37 0
9 28 38 0
9 -28 -38 0
1 28 39 0
1 -28 -39 0
1 28 45 0
1 -28 -45 0
10 28 46 0
10 -28 -46 0
2 28 49 0
2 -28 -49 0
5 28 53 0
5 -28 -53 0
3 28 55 0
3 -28 -55 0
9 28 58 0
9 -28 -58 0
3 28 59 0
3 -28 -59 0
4 29 30 0
4 -29 -30 0
9 29 33 0
9 -29 -33 0
4 29 36 0
4 -29 -36 0
9 29 42 0
9 -29 -42 0
7 29 45 0
7 -29 -45 0
1 29 49 0
1 -29 -49 0
3 29 52 0
3 -29 -52 0
8 29 53 0
8 -29 -53 0
7 29 58 0
7 -29 -58 0
9 29 59 0
9 -29 -59 0
4 30 33 0
4 -30 -33 0
3 30 36 0
3 -30 -36 0
2 30 37 0
2 -30 -37 0
7 30 41 0
7 -30 -41 0
2 30 45 0
2 -30 -45 0
7 30 47 0
7 -30 -47 0
8 30 49 0
8 -30 -49 0
8 30 50 0
8 -30 -50 0
3 30 55 0
3 -30 -55 0
5 30 57 0
5 -30 -57 0
4 30 60 0
4 -30 -60 0
5 31 39 0
5 -31 -39 0
3 31 40 0
3 -31 -40 0
4 31 41 0
4 -31 -41 0
6 31 42 0
6 -31 -42 0
2 31 43 0
2 -31 -43 0
6 31 46 0
6 -31 -46 0
1 31 47 0
1 -31 -47 0
4 31 48 0
4 -31 -48 0
4 31 50 0
4 -31 -50 0
4 31 56 0
4 -31 -56 0
8 31 57 0
8 -31 -57 0
3 31 59 0
3 -31 -59 0
7 31 60 0
7 -31 -60 0
6 32 33 0
6 -32 -33 0
10 32 38 0
10 -32 -38 0
7 32 46 0
7 -32 -46 0
9 32 49 0
9 -32 -49 0
7 32 50 0
7 -32 -50 0
4 32 57 0
4 -32 -57 0
7 32 58 0
7 -32 -58 0
1 32 59 0
1 -32 -59 0
6 33 36 0
6 -33 -36 0
9 33 38 0
9 -33 -38 0
7 33 41 0
7 -33 -41 0
7 33 46 0
7 -33 -46 0
6 33 52 0
6 -33 -52 0
5 33 54 0
5 -33 -54 0
4 33 55 0
4 -33 -55 0
8 33 56 0
8 -33 -56 0
9 34 45 0
9 -34 -45 0
7 34 47 0
7 -34 -47 0
2 34 48 0
2 -34 -48 0
1 34 51 0
1 -34 -51 0
1 34 53 0
1 -34 -53 0
7 35 36 0
7 -35 -36 0
2 35 38 0
2 -35 -38 0
7 35 40 0
7 -35 -40 0
8 35 42 0
8 -35 -42 0
6 35 48 0
6 -35 -48 0
1 35 50 0
1 -35 -50 0
1 35 51 0
1 -35 -51 0
4 35 52 0
4 -35 -52 0
3 35 53 0
3 -35 -53 0
7 35 55 0
7 -35 -55 0
9 35 57 0
9 -35 -57 0
2 36 40 0
2 -36 -40 0
4 36 43 0
4 -36 -43 0
7 36 46 0
7 -36 -46 0
9 36 48 0
9 -36 -48 0
7 36 52 0
7 -36 -52 0
4 36 54 0
4 -36 -54 0
9 36 56 0
9 -36 -56 0
2 36 58 0
2 -36 -58 0
2 36 59 0
2 -36 -59 0
6 37 39 0
6 -37 -39 0
9 37 40 0
9 -37 -40 0
7 37 41 0
7 -37 -41 0
10 37 42 0
10 -37 -42 0
2 37 47 0
2 -37 -47 0
4 37 50 0
4 -37 -50 0
8 37 52 0
8 -37 -52 0
9 37 54 0
9 -37 -54 0
6 38 41 0
6 -38 -41 0
8 38 42 0
8 -38 -42 0
10 38 49 0
10 -38 -49 0
3 38 50 0
3 -38 -50 0
10 38 54 0
10 -38 -54 0
6 38 56 0
6 -38 -56 0
10 38 57 0
10 -38 -57 0
5 39 40 0
5 -39 -40 0
6 39 41 0
6 -39 -41 0
10 39 42 0
10 -39 -42 0
8 39 45 0
8 -39 -45 0
9 39 46 0
9 -39 -46 0
6 39 49 0
6 -39 -49 0
7 39 50 0
7 -39 -50 0
10 39 53 0
10 -39 -53 0
10 39 55 0
10 -39 -55 0
4 40 42 0
4 -40 -42 0
9 40 43 0
9 -40 -43 0
6 40 44 0
6 -40 -44 0
7 40 45 0
7 -40 -45 0
8 40 46 0
8 -40 -46 0
8 40 50 0
8 -40 -50 0
8 40 58 0
8 -40 -58 0
3 41 42 0
3 -41 -42 0
7 41 48 0
7 -41 -48 0
5 41 55 0
5 -41 -55 0
2 41 56 0
2 -41 -56 0
8 41 57 0
8 -41 -57 0
9 41 58 0
9 -41 -58 0
9 42 44 0
9 -42 -44 0
7 42 48 0
7 -42 -48 0
5 42 49 0
5 -42 -49 0
7 42 50 0
7 -42 -50 0
6 42 51 0
6 -42 -51 0
7 42 58 0
7 -42 -58 0
6 43 44 0
6 -43 -44 0
2 43 46 0
2 -43 -46 0
6 43 50 0
6 -43 -50 0
1 43 54 0
1 -43 -54 0
8 43 58 0
8 -43 -58 0
6 44 45 0
6 -44 -45 0
9 44 47 0
9 -44 -47 0
6 44 48 0
6 -44 -48 0
2 44 49 0
2 -44 -49 0
5 44 50 0
5 -44 -50 0
6 44 59 0
6 -44 -59 0
1 44 60 0
1 -44 -60 0
9 45 46 0
9 -45 -46 0
4 45 52 0
4 -45 -52 0
7 46 47 0
7 -46 -47 0
5 46 48 0
5 -46 -48 0
2 46 49 0
2 -46 -49 0
5 46 51 0
5 -46 -51 0
3 46 57 0
3 -46 -57 0
5 46 60 0
5 -46 -60 0
1 47 52 0
1 -47 -52 0
8 47 53 0
8 -47 -53 0
6 47 54 0
6 -47 -54 0
9 47 55 0
9 -47 -55 0
6 48 50 0
6 -48 -50 0
5 48 54 0
5 -48 -54 0
5 48 55 0
5 -48 -55 0
10 48 56 0
10 -48 -56 0
1 48 58 0
1 -48 -58 0
1 48 60 0
1 -48 -60 0
7 49 50 0
7 -49 -50 0
6 49 51 0
6 -49 -51 0
3 49 52 0
3 -49 -52 0
3 49 55 0
3 -49 -55 0
7 49 58 0
7 -49 -58 0
10 49 60 0
10 -49 -60 0
8 50 53 0
8 -50 -53 0
5 50 56 0
5 -50 -56 0
5 50 60 0
5 -50 -60 0
9 51 52 0
9 -51 -52 0
10 51 55 0
10 -51 -55 0
10 51 59 0
10 -51 -59 0
9 51 60 0
9 -51 -60 0
8 52 53 0
8 -52 -53 0
4 52 54 0
4 -52 -54 0
6 52 56 0
6 -52 -56 0
3 52 59 0
3 -52 -59 0
5 53 56 0
5 -53 -56 0
10 54 56 0
10 -54 -56 0
5 54 57 0
5 -54 -57 0
9 54 59 0
9 -54 -59 0
10 54 60 0
10 -54 -60 0
2 55 57 0
2 -55 -57 0
5 55 60 0
5 -55 -60 0
8 56 59 0
8 -56 -59 0
8 57 58 0
8 -57 -58 0
10 58 60 0
10 -58 -60 0
3 59 60 0
3 -59 -60 0
